# SCIP version 6.0.0.2

# should Benders' decomposition be used?
# [type: bool, advanced: FALSE, range: {TRUE,FALSE}, default: FALSE]
reading/scflpreader/usebenders = TRUE

# the number of scenarios that will be randomly generated
# [type: int, advanced: FALSE, range: [1,2147483647], default: 250]
reading/scflpreader/numscenarios = 5
